10	5
0	3	2	3	1
1	3	9	7	4
2	2	10	6
3	2	4	7
4	1	5
5	3	6	10	8
6	1	11
7	1	11
8	1	11
9	1	11
10	1	11
11	0
0	0	0	0	0	0	0
1	5	1	5	2	2	3
2	7	4	5	2	3	1
3	7	4	2	2	1	2
4	9	4	4	1	4	1
5	5	5	2	3	2	1
6	10	3	4	5	4	5
7	10	3	3	3	2	2
8	4	2	1	2	1	4
9	9	4	5	4	3	3
10	7	4	5	4	5	5
11	0	0	0	0	0	0
6	7	6	6	6
